
******************************************************************************
This program contains Ipopt, a library for large-scale nonlinear optimization.
 Ipopt is released as open source code under the Eclipse Public License (EPL).
         For more information visit http://projects.coin-or.org/Ipopt
******************************************************************************

This is Ipopt version 3.12.6, running with linear solver ma57.

Number of nonzeros in equality constraint Jacobian...:        0
Number of nonzeros in inequality constraint Jacobian.:        0
Number of nonzeros in Lagrangian Hessian.............:    79599

Total number of variables............................:     3969
                     variables with only lower bounds:        0
                variables with lower and upper bounds:        0
                     variables with only upper bounds:        0
Total number of equality constraints.................:        0
Total number of inequality constraints...............:        0
        inequality constraints with only lower bounds:        0
   inequality constraints with lower and upper bounds:        0
        inequality constraints with only upper bounds:        0

iter    objective    inf_pr   inf_du lg(mu)  ||d||  lg(rg) alpha_du alpha_pr  ls
   0  9.6923077e-02 0.00e+00 1.09e+00  -1.0 0.00e+00    -  0.00e+00 0.00e+00   0
   1  3.2453725e-02 0.00e+00 2.59e-01  -1.0 2.53e-03   2.0 1.00e+00 1.00e+00f  1
   2  1.3109054e-02 0.00e+00 7.95e-02  -1.7 2.27e-03   1.5 1.00e+00 1.00e+00f  1
   3  6.0573998e-03 0.00e+00 2.41e-02  -2.5 2.07e-03   1.0 1.00e+00 1.00e+00f  1
   4  2.9211177e-03 0.00e+00 1.15e-02  -3.8 2.43e-03   0.6 1.00e+00 1.00e+00f  1
   5  1.4267790e-03 0.00e+00 8.29e-03  -3.8 2.84e-03   0.1 1.00e+00 1.00e+00f  1
   6  6.9955655e-04 0.00e+00 9.20e-03  -3.8 3.13e-03  -0.4 1.00e+00 1.00e+00f  1
   7  3.4339709e-04 0.00e+00 8.36e-03  -3.8 3.82e-03  -0.9 1.00e+00 1.00e+00f  1
   8  1.6872503e-04 0.00e+00 6.89e-03  -3.8 4.28e-03  -1.3 1.00e+00 1.00e+00f  1
   9  8.3111590e-05 0.00e+00 5.20e-03  -3.8 5.11e-03  -1.8 1.00e+00 1.00e+00f  1
iter    objective    inf_pr   inf_du lg(mu)  ||d||  lg(rg) alpha_du alpha_pr  ls
  10  4.1232016e-05 0.00e+00 4.95e-03  -3.8 5.89e-03  -2.3 1.00e+00 1.00e+00f  1
  11  2.0604484e-05 0.00e+00 3.74e-03  -3.8 1.72e-01    -  1.00e+00 5.00e-01f  2
  12  9.9927636e-06 0.00e+00 2.06e-03  -3.8 4.64e-03  -2.8 1.00e+00 1.00e+00f  1
  13  7.2889373e-06 0.00e+00 1.28e-03  -3.8 4.70e-03  -3.2 1.00e+00 1.00e+00f  1
  14  5.4898147e-06 0.00e+00 1.18e-03  -5.7 5.91e-03  -3.7 1.00e+00 1.00e+00f  1
  15  4.0050298e-06 0.00e+00 8.26e-04  -5.7 6.25e-03  -4.2 1.00e+00 1.00e+00f  1
  16  2.8929898e-06 0.00e+00 6.24e-04  -5.7 6.76e-03  -4.7 1.00e+00 1.00e+00f  1
  17  2.0561365e-06 0.00e+00 4.40e-04  -5.7 9.61e-03  -5.2 1.00e+00 1.00e+00f  1
  18  1.8710369e-06 0.00e+00 4.34e-04  -5.7 1.17e+00    -  1.00e+00 1.56e-02f  7
  19  1.4130326e-06 0.00e+00 2.86e-04  -5.7 2.00e-02    -  1.00e+00 1.00e+00f  1
iter    objective    inf_pr   inf_du lg(mu)  ||d||  lg(rg) alpha_du alpha_pr  ls
  20  1.2745250e-06 0.00e+00 3.11e-04  -5.7 2.97e-02    -  1.00e+00 1.00e+00f  1
  21  9.7691053e-07 0.00e+00 1.16e-04  -5.7 1.33e-02  -5.6 1.00e+00 1.00e+00f  1
  22  9.3650046e-07 0.00e+00 1.09e-04  -5.7 1.56e-01    -  1.00e+00 6.25e-02f  5
  23  7.7119255e-07 0.00e+00 2.21e-04  -5.7 3.39e-02    -  1.00e+00 5.00e-01f  2
  24  6.6033451e-07 0.00e+00 1.17e-04  -5.7 1.66e-02    -  1.00e+00 1.00e+00f  1
  25  5.9051671e-07 0.00e+00 1.41e-04  -5.7 2.50e-02    -  1.00e+00 1.00e+00f  1
  26  4.7157637e-07 0.00e+00 1.25e-04  -5.7 8.09e-02    -  1.00e+00 2.50e-01f  3
  27  4.3229701e-07 0.00e+00 1.01e-04  -5.7 9.72e-02    -  1.00e+00 2.50e-01f  3
  28  3.5114382e-07 0.00e+00 8.21e-05  -5.7 5.41e-02    -  1.00e+00 5.00e-01f  2
  29  2.1781971e-07 0.00e+00 1.10e-04  -5.7 1.27e-02    -  1.00e+00 1.00e+00f  1
iter    objective    inf_pr   inf_du lg(mu)  ||d||  lg(rg) alpha_du alpha_pr  ls
  30  1.9158432e-07 0.00e+00 7.06e-05  -5.7 2.56e-02    -  1.00e+00 1.00e+00f  1
  31  1.7137923e-07 0.00e+00 6.52e-05  -5.7 1.69e-02    -  1.00e+00 5.00e-01f  2
  32  1.3679631e-07 0.00e+00 3.11e-06  -5.7 3.54e-03    -  1.00e+00 1.00e+00f  1
  33  1.2913857e-07 0.00e+00 1.90e-05  -8.6 3.03e-02    -  1.00e+00 2.50e-01f  3
  34  1.1864639e-07 0.00e+00 7.77e-06  -8.6 6.58e-03    -  1.00e+00 1.00e+00f  1
  35  1.1399101e-07 0.00e+00 2.48e-05  -8.6 8.15e-03    -  1.00e+00 1.00e+00f  1
  36  1.0271650e-07 0.00e+00 2.49e-06  -8.6 2.73e-03    -  1.00e+00 1.00e+00f  1
  37  1.0206067e-07 0.00e+00 2.46e-05  -8.6 1.59e-02    -  1.00e+00 5.00e-01f  2
  38  9.0564819e-08 0.00e+00 1.39e-06  -8.6 1.75e-03    -  1.00e+00 1.00e+00f  1
  39  8.6904321e-08 0.00e+00 9.30e-06  -8.6 1.94e-02    -  1.00e+00 2.50e-01f  3
iter    objective    inf_pr   inf_du lg(mu)  ||d||  lg(rg) alpha_du alpha_pr  ls
  40  8.1764346e-08 0.00e+00 5.05e-06  -8.6 3.68e-03    -  1.00e+00 1.00e+00f  1
  41  7.8722901e-08 0.00e+00 1.18e-05  -8.6 5.75e-03    -  1.00e+00 1.00e+00f  1
  42  7.3377058e-08 0.00e+00 1.88e-06  -8.6 2.21e-03    -  1.00e+00 1.00e+00f  1
  43  7.1784265e-08 0.00e+00 1.11e-05  -8.6 1.08e-02    -  1.00e+00 5.00e-01f  2
  44  6.6825356e-08 0.00e+00 1.30e-06  -8.6 2.04e-03    -  1.00e+00 1.00e+00f  1
  45  6.4831988e-08 0.00e+00 3.87e-06  -8.6 1.19e-02    -  1.00e+00 2.50e-01f  3
  46  6.2297055e-08 0.00e+00 6.24e-06  -8.6 4.46e-03    -  1.00e+00 1.00e+00f  1
  47  5.9152000e-08 0.00e+00 1.96e-06  -8.6 2.67e-03    -  1.00e+00 1.00e+00f  1
  48  5.7405543e-08 0.00e+00 4.46e-06  -8.6 7.06e-03    -  1.00e+00 5.00e-01f  2
  49  5.4866098e-08 0.00e+00 2.68e-06  -8.6 3.28e-03    -  1.00e+00 1.00e+00f  1
iter    objective    inf_pr   inf_du lg(mu)  ||d||  lg(rg) alpha_du alpha_pr  ls
  50  5.3177595e-08 0.00e+00 5.58e-06  -8.6 4.82e-03    -  1.00e+00 1.00e+00f  1
  51  5.0513288e-08 0.00e+00 1.07e-06  -8.6 2.35e-03    -  1.00e+00 1.00e+00f  1
  52  4.9441617e-08 0.00e+00 4.93e-06  -8.6 9.30e-03    -  1.00e+00 5.00e-01f  2
  53  4.6991748e-08 0.00e+00 8.89e-07  -8.6 2.29e-03    -  1.00e+00 1.00e+00f  1
  54  4.6223051e-08 0.00e+00 4.98e-06  -8.6 1.00e-02    -  1.00e+00 5.00e-01f  2
  55  4.3788161e-08 0.00e+00 6.16e-07  -8.6 2.09e-03    -  1.00e+00 1.00e+00f  1
  56  4.2764810e-08 0.00e+00 1.92e-06  -8.6 1.22e-02    -  1.00e+00 2.50e-01f  3
  57  4.1390750e-08 0.00e+00 2.74e-06  -8.6 4.40e-03    -  1.00e+00 1.00e+00f  1
  58  3.9797954e-08 0.00e+00 1.10e-06  -8.6 2.97e-03    -  1.00e+00 1.00e+00f  1
  59  3.8876059e-08 0.00e+00 1.83e-06  -8.6 6.38e-03    -  1.00e+00 5.00e-01f  2
iter    objective    inf_pr   inf_du lg(mu)  ||d||  lg(rg) alpha_du alpha_pr  ls
  60  3.7586428e-08 0.00e+00 1.80e-06  -8.6 3.96e-03    -  1.00e+00 1.00e+00f  1
  61  3.6337491e-08 0.00e+00 1.49e-06  -8.6 3.75e-03    -  1.00e+00 1.00e+00f  1
  62  3.5224573e-08 0.00e+00 1.72e-06  -8.6 4.20e-03    -  1.00e+00 1.00e+00f  1
  63  3.4059882e-08 0.00e+00 1.04e-06  -8.6 3.43e-03    -  1.00e+00 1.00e+00f  1
  64  3.3290464e-08 0.00e+00 2.27e-06  -8.6 5.12e-03    -  1.00e+00 1.00e+00f  1
  65  3.1997283e-08 0.00e+00 4.16e-07  -8.6 2.44e-03    -  1.00e+00 1.00e+00f  1
  66  3.1581082e-08 0.00e+00 2.29e-06  -8.6 1.05e-02    -  1.00e+00 5.00e-01f  2
  67  3.0208703e-08 0.00e+00 2.87e-07  -8.6 2.23e-03    -  1.00e+00 1.00e+00f  1
  68  2.9597461e-08 0.00e+00 1.01e-06  -8.6 1.39e-02    -  1.00e+00 2.50e-01f  3
  69  2.8696628e-08 0.00e+00 1.15e-06  -8.6 4.43e-03    -  1.00e+00 1.00e+00f  1
iter    objective    inf_pr   inf_du lg(mu)  ||d||  lg(rg) alpha_du alpha_pr  ls
  70  2.7706088e-08 0.00e+00 7.69e-07  -8.6 3.82e-03    -  1.00e+00 1.00e+00f  1
  71  2.6959108e-08 0.00e+00 1.53e-06  -8.6 5.49e-03    -  1.00e+00 1.00e+00f  1
  72  2.5718235e-08 0.00e+00 3.67e-07  -8.6 2.92e-03    -  1.00e+00 1.00e+00f  1
  73  2.5259011e-08 0.00e+00 1.74e-06  -8.6 1.17e-02    -  1.00e+00 5.00e-01f  2
  74  2.3705979e-08 0.00e+00 2.66e-07  -8.6 2.71e-03    -  1.00e+00 1.00e+00f  1
  75  2.2949508e-08 0.00e+00 9.50e-07  -8.6 1.72e-02    -  1.00e+00 2.50e-01f  3
  76  2.1694627e-08 0.00e+00 8.78e-07  -8.6 4.84e-03    -  1.00e+00 1.00e+00f  1
  77  2.0421643e-08 0.00e+00 1.01e-06  -8.6 5.31e-03    -  1.00e+00 1.00e+00f  1
  78  1.8967918e-08 0.00e+00 7.50e-07  -8.6 4.71e-03    -  1.00e+00 1.00e+00f  1
  79  1.7772098e-08 0.00e+00 1.38e-06  -8.6 6.39e-03    -  1.00e+00 1.00e+00f  1
iter    objective    inf_pr   inf_du lg(mu)  ||d||  lg(rg) alpha_du alpha_pr  ls
  80  1.5947882e-08 0.00e+00 4.21e-07  -8.6 3.72e-03    -  1.00e+00 1.00e+00f  1
  81  1.4970657e-08 0.00e+00 1.36e-06  -8.6 1.20e-02    -  1.00e+00 5.00e-01f  2
  82  1.2990378e-08 0.00e+00 4.56e-07  -8.6 3.95e-03    -  1.00e+00 1.00e+00f  1
  83  1.1869629e-08 0.00e+00 1.32e-06  -8.6 1.19e-02    -  1.00e+00 5.00e-01f  2
  84  9.7428956e-09 0.00e+00 5.66e-07  -8.6 4.38e-03    -  1.00e+00 1.00e+00f  1
  85  8.4293598e-09 0.00e+00 1.16e-06  -8.6 1.08e-02    -  1.00e+00 5.00e-01f  2
  86  6.3026493e-09 0.00e+00 8.87e-07  -8.6 5.34e-03    -  1.00e+00 1.00e+00f  1
  87  4.6845800e-09 0.00e+00 1.67e-06  -8.6 7.16e-03    -  1.00e+00 1.00e+00f  1
  88  2.5566217e-09 0.00e+00 6.43e-07  -8.6 3.68e-03    -  1.00e+00 1.00e+00f  1
  89  1.5915500e-09 0.00e+00 1.27e-06  -8.6 9.44e-03    -  1.00e+00 5.00e-01f  2
iter    objective    inf_pr   inf_du lg(mu)  ||d||  lg(rg) alpha_du alpha_pr  ls
  90  6.0920847e-10 0.00e+00 9.83e-07  -8.6 3.74e-03    -  1.00e+00 1.00e+00f  1
  91  1.7673215e-10 0.00e+00 1.14e-06  -8.6 3.78e-03    -  1.00e+00 1.00e+00f  1
  92  2.1477837e-11 0.00e+00 2.90e-07  -8.6 1.77e-03    -  1.00e+00 1.00e+00f  1
  93  7.2782623e-13 0.00e+00 1.32e-07  -8.6 1.19e-03    -  1.00e+00 1.00e+00f  1
  94  8.3630601e-16 0.00e+00 2.05e-09  -8.6 1.51e-04    -  1.00e+00 1.00e+00f  1

Number of Iterations....: 94

                                   (scaled)                 (unscaled)
Objective...............:   8.3630600994482066e-16    8.3630600994482066e-16
Dual infeasibility......:   2.0461271637327849e-09    2.0461271637327849e-09
Constraint violation....:   0.0000000000000000e+00    0.0000000000000000e+00
Complementarity.........:   0.0000000000000000e+00    0.0000000000000000e+00
Overall NLP error.......:   2.0461271637327849e-09    2.0461271637327849e-09


Number of objective function evaluations             = 241
Number of objective gradient evaluations             = 95
Number of equality constraint evaluations            = 0
Number of inequality constraint evaluations          = 0
Number of equality constraint Jacobian evaluations   = 0
Number of inequality constraint Jacobian evaluations = 0
Number of Lagrangian Hessian evaluations             = 94
Total CPU secs in IPOPT (w/o function evaluations)   =      4.617
Total CPU secs in NLP function evaluations           =      2.687

EXIT: Optimal Solution Found.

 ** SUBROUTINE CUTEST_csetup: Warning. The problem has no general constraints. 
 ** Other tools may be preferable ** 

************************ CUTEst statistics ************************


 Package used            :  IPOPT
 Problem                 :  DRCAV1LQ  
 # variables             =            4489
 # constraints           =               0
 # objective functions   =        0.3370000E+03
 # objective gradients   =        0.9600000E+02
 # objective Hessians    =        0.9500000E+02
 # Hessian-vector prdct  =        0.0000000E+00
 # constraints functions =        0.0000000E+00
 # constraints gradients =        0.0000000E+00
 # constraints Hessians  =        0.0000000E+00
 Exit code               =               0
 Final f                 =   0.8363060E-15
 Set up time             =            0.18 seconds
 Solve time              =           19.68 seconds


******************************************************************

System Time =       4.9549999237 s.
